(declare-fun it32 () Int)
(declare-fun i9 () Int)
(declare-fun i3 () Int)
(declare-fun it44 () Int)
(declare-fun i7 () Int)
(assert (not (<= it32 0)))
(assert (not (<= i9 (- 1))))
(assert (not (<= i3 2)))
(assert (not (>= i3 4)))
(assert (not (<= it44 0)))
(assert (not (<= (+ it32 i9) (- 1))))
(assert (let ((a!1 (<= (+ (* (- 1) it44) (* i7 (exp 2 it32)) (exp 2 it32) (* (- 1) i7))
               0)))
  (not a!1)))
(assert (let ((a!1 (+ (* i7 (exp 2 it32))
              (exp 2 it32)
              (* it44 (exp 2 it32))
              (* (- 1) i7 (exp 2 (* 2 it32)))
              (* (- 1) (exp 2 (* 2 it32))))))
  (not (<= a!1 0))))
(check-sat)